p cnf 50 20
x 2 5 7 -8 -10 14 -15 -16 -17 -21 -22 -23 -27 29 30 33 35 36 38 -39 -44 45 -46 -47 -48 0
x 4 -7 8 -11 -14 15 -17 -20 -21 -22 24 25 26 -28 -45 47 0
x -2 3 -7 11 14 15 16 18 -19 -20 -22 25 -26 33 35 -36 39 41 -44 45 -46 49 0
x 1 3 -5 7 -8 -9 10 14 -15 20 -23 -24 28 30 31 35 40 42 -43 -44 46 -49 0
x -1 2 3 -7 -9 -10 -13 14 18 21 23 -24 -27 -30 31 34 -35 39 40 41 -42 44 47 0
x 1 2 5 -7 9 -11 13 14 16 17 18 -19 -20 -21 -24 27 28 30 -32 -33 -35 -36 -38 42 43 -44 46 47 0
x 2 3 4 7 8 -10 12 -13 17 18 -19 21 22 -24 25 26 30 37 -38 -40 -41 -45 47 -50 0
x -2 4 -6 7 14 -17 19 -20 21 -23 24 26 29 -30 -31 32 -33 -34 -35 -36 -38 -43 44 46 -48 0
x 1 4 5 -8 -9 -10 15 16 17 19 -23 24 -26 -27 28 -29 -30 32 35 36 38 -39 44 46 -47 49 50 0
x -2 3 5 7 -9 10 14 -16 18 20 22 23 25 27 28 29 31 -34 35 38 -40 41 -42 46 47 48 -50 0
x -1 -4 7 -8 10 -14 -16 -17 -25 -27 -28 29 -33 35 36 -38 40 41 -45 -49 50 0
x -2 -4 5 -6 -9 11 14 -18 -20 -24 -26 -27 -30 -31 36 -38 -39 -41 -46 -47 49 0
x 2 -4 5 6 -7 -8 -9 12 -13 14 15 17 18 -20 22 -26 -29 30 -35 -36 37 -39 44 -45 -48 -49 50 0
x -3 8 12 -14 15 16 17 18 -19 -22 -27 -28 -29 -30 31 32 -34 -35 -36 42 -43 44 45 46 47 0
x 5 -7 11 13 14 19 22 24 -25 26 28 -32 34 35 39 -40 41 42 -44 45 -47 -49 0
x -1 3 4 -5 10 -13 14 16 17 23 -25 26 -29 -30 -31 -35 -36 -38 -39 40 41 42 44 45 49 0
x -1 2 3 5 6 10 16 18 20 24 -25 -26 -27 28 32 -33 -36 -38 39 40 -44 47 48 -50 0
x 1 -3 -4 6 -7 8 -9 12 -13 14 15 17 19 -21 -22 -24 -26 -29 -30 -31 32 33 34 36 42 -48 50 0
x 1 2 -4 5 7 -9 -10 11 -12 14 -15 17 -19 -21 22 -26 27 28 30 32 34 -36 -37 39 -40 41 -42 -43 45 -46 -47 -49 50 0
x -2 -6 -7 -9 -13 14 15 -18 19 21 23 -24 26 27 28 -30 38 -41 -43 45 46 -47 48 0
g -10